7811.85 337597
36176.9 272284
382210 9725.81
261167 47850.6
74335.1 271058
252290 61283
349471 12005.3
248881 66763.9
183271 150694
256229 59434.4
200014 126247
87087.7 243131
255933 61081.5
149425 177808
251586 66527.2
342146 12141.9
171660 157085
28565.8 290089
36126.4 285202
294609 39308.9
143190 208907
138375 211296
146287 188654
297159 26177.4
285718 45091.3
82588.6 264524
308150 24932.5
284740 47834.9
236603 122095
17732.4 312833
214009 125797
146155 189333
27057.7 298274
116996 235330
14222.2 315326
240859 86489
140526 211007
83811.5 246987
110781 236087
120958 229540
162165 174588
142866 209904
110187 240249
291301 44230.9
